min: c;

c = 2.72915879881116 * u1_t7_h4 + 3.32177827458862 * u1_t7_h5 + 3.67400916118219 * u1_t5_h6 + 3.67400916118219 * u1_t7_h6 + 4.37250280926239 * u1_t5_h7 + 4.37250280926239 * u1_t7_h7 + 4.37250280926239 * u1_t9_h7 + 5.50336706107611 * u1_t5_h8 + 5.50336706107611 * u1_t7_h8 + 5.50336706107611 * u1_t9_h8 + 5.50336706107611 * u1_t10_h8 + 4.581759070143 * u1_t5_h9 + 4.581759070143 * u1_t7_h9 + 4.581759070143 * u1_t9_h9 + 4.581759070143 * u1_t10_h9 + 5.17093649061197 * u1_t5_h10 + 5.17093649061197 * u1_t7_h10 + 5.17093649061197 * u1_t9_h10 + 5.17093649061197 * u1_t10_h10 + 4.1382096664453 * u1_t5_h11 + 4.1382096664453 * u1_t9_h11 + 4.1382096664453 * u1_t10_h11 + 6.5197703549867 * u1_t4_h12 + 6.5197703549867 * u1_t5_h12 + 6.5197703549867 * u1_t8_h12 + 6.5197703549867 * u1_t9_h12 + 6.5197703549867 * u1_t10_h12 + 4.73900549942509 * u1_t4_h13 + 4.73900549942509 * u1_t8_h13 + 4.73900549942509 * u1_t9_h13 + 4.73900549942509 * u1_t10_h13 + 4.97386202874013 * u1_t4_h14 + 4.97386202874013 * u1_t8_h14 + 4.97386202874013 * u1_t9_h14 + 4.97386202874013 * u1_t10_h14 + 5.84840614464644 * u1_t4_h15 + 5.84840614464644 * u1_t8_h15 + 5.87615207226162 * u1_t4_h16 + 5.87615207226162 * u1_t8_h16 + 6.62374009545657 * u1_t4_h17 + 6.62374009545657 * u1_t8_h17 + 5.98260044018926 * u1_t2_h18 + 5.98260044018926 * u1_t4_h18 + 5.98260044018926 * u1_t6_h18 + 5.98260044018926 * u1_t8_h18 + 5.7953605462694 * u1_t2_h19 + 5.7953605462694 * u1_t3_h19 + 5.7953605462694 * u1_t4_h19 + 5.7953605462694 * u1_t6_h19 + 5.7415650228133 * u1_t1_h20 + 5.7415650228133 * u1_t2_h20 + 5.7415650228133 * u1_t3_h20 + 5.7415650228133 * u1_t4_h20 + 5.7415650228133 * u1_t6_h20 + 5.43088551145452 * u1_t1_h21 + 5.43088551145452 * u1_t2_h21 + 5.43088551145452 * u1_t3_h21 + 5.28031490464546 * u1_t1_h22 + 5.28031490464546 * u1_t2_h22 + 4.97947585053491 * u1_t1_h23 + 4.97947585053491 * u1_t2_h23;
0 <= u1_t1_h20 <= 1;
0 <= u1_t1_h21 <= 1;
0 <= u1_t1_h22 <= 1;
0 <= u1_t1_h23 <= 1;
u1_t1_h20 + u1_t1_h21 + u1_t1_h22 + u1_t1_h23 = 1;
0 <= u1_t2_h18 <= 1;
0 <= u1_t2_h19 <= 1;
0 <= u1_t2_h20 <= 1;
0 <= u1_t2_h21 <= 1;
0 <= u1_t2_h22 <= 1;
0 <= u1_t2_h23 <= 1;
u1_t2_h18 + u1_t2_h19 + u1_t2_h20 + u1_t2_h21 + u1_t2_h22 + u1_t2_h23 = 2;
0 <= u1_t3_h19 <= 1;
0 <= u1_t3_h20 <= 1;
0 <= u1_t3_h21 <= 1;
u1_t3_h19 + u1_t3_h20 + u1_t3_h21 = 1;
0 <= u1_t4_h12 <= 1;
0 <= u1_t4_h13 <= 1;
0 <= u1_t4_h14 <= 1;
0 <= u1_t4_h15 <= 1;
0 <= u1_t4_h16 <= 1;
0 <= u1_t4_h17 <= 1;
0 <= u1_t4_h18 <= 1;
0 <= u1_t4_h19 <= 1;
0 <= u1_t4_h20 <= 1;
u1_t4_h12 + u1_t4_h13 + u1_t4_h14 + u1_t4_h15 + u1_t4_h16 + u1_t4_h17 + u1_t4_h18 + u1_t4_h19 + u1_t4_h20 = 3;
0 <= u1_t5_h6 <= 1;
0 <= u1_t5_h7 <= 1;
0 <= u1_t5_h8 <= 1;
0 <= u1_t5_h9 <= 1;
0 <= u1_t5_h10 <= 1;
0 <= u1_t5_h11 <= 1;
0 <= u1_t5_h12 <= 1;
u1_t5_h6 + u1_t5_h7 + u1_t5_h8 + u1_t5_h9 + u1_t5_h10 + u1_t5_h11 + u1_t5_h12 = 3;
0 <= u1_t6_h18 <= 1;
0 <= u1_t6_h19 <= 1;
0 <= u1_t6_h20 <= 1;
u1_t6_h18 + u1_t6_h19 + u1_t6_h20 = 2;
0 <= u1_t7_h4 <= 1;
0 <= u1_t7_h5 <= 1;
0 <= u1_t7_h6 <= 1;
0 <= u1_t7_h7 <= 1;
0 <= u1_t7_h8 <= 1;
0 <= u1_t7_h9 <= 1;
0 <= u1_t7_h10 <= 1;
u1_t7_h4 + u1_t7_h5 + u1_t7_h6 + u1_t7_h7 + u1_t7_h8 + u1_t7_h9 + u1_t7_h10 = 2;
0 <= u1_t8_h12 <= 1;
0 <= u1_t8_h13 <= 1;
0 <= u1_t8_h14 <= 1;
0 <= u1_t8_h15 <= 1;
0 <= u1_t8_h16 <= 1;
0 <= u1_t8_h17 <= 1;
0 <= u1_t8_h18 <= 1;
u1_t8_h12 + u1_t8_h13 + u1_t8_h14 + u1_t8_h15 + u1_t8_h16 + u1_t8_h17 + u1_t8_h18 = 2;
0 <= u1_t9_h7 <= 1;
0 <= u1_t9_h8 <= 1;
0 <= u1_t9_h9 <= 1;
0 <= u1_t9_h10 <= 1;
0 <= u1_t9_h11 <= 1;
0 <= u1_t9_h12 <= 1;
0 <= u1_t9_h13 <= 1;
0 <= u1_t9_h14 <= 1;
u1_t9_h7 + u1_t9_h8 + u1_t9_h9 + u1_t9_h10 + u1_t9_h11 + u1_t9_h12 + u1_t9_h13 + u1_t9_h14 = 3;
0 <= u1_t10_h8 <= 1;
0 <= u1_t10_h9 <= 1;
0 <= u1_t10_h10 <= 1;
0 <= u1_t10_h11 <= 1;
0 <= u1_t10_h12 <= 1;
0 <= u1_t10_h13 <= 1;
0 <= u1_t10_h14 <= 1;
u1_t10_h8 + u1_t10_h9 + u1_t10_h10 + u1_t10_h11 + u1_t10_h12 + u1_t10_h13 + u1_t10_h14 = 3;
